40 70 43 59 32 49 78 53 52 30 65 77 75 62 67 54 23 72 42 19 71 13 10 36 47 64 17 61 25 20 48 6 0 16 7 44 27 69 38 11 46 66 1 41 22 57 51 68 58 28 60 15 3 74 63 5 76 50 29 34 56 18 31 33 45 9 55 37 24 73 8 21 12 4 14 79 35 2 39 26